sat
(:max-memory            26.30
 :memory                18.18
 :num-allocs            56594
 :rlimit-count          12248
 :sat-decisions         5
 :sat-mk-clause-2ary    7
 :sat-mk-clause-nary    3
 :sat-mk-var            9
 :sat-propagations-2ary 4
 :solve-eqs-elim-vars   49
 :solve-eqs-steps       49
 :time                  0.00
 :total-time            0.01)
